459066
93,26,53,91,90,31,25,17,69,47,52,42,51,3,63,24,43,7,70,32,18,11,82,23,73,85,4,50,57,71,33,5,6,45,83,19,22,72,81,55,12,102,10,89,80,34,61,8,16,40,106,49,100,75,95,96,39,64,20,97,9,58,92,15,54,41,36,21,2,48,38,101,105,62,35,94,104,99,13,14,68,65,98,30,29,86,56,88,84,46,77,67,103,74,1,27,76,78,60,37,79,87,59,66,44,28